p cnf 131 265
1 2 3 4 0
1 2 -3 4 0
1 -2 3 4 0
1 -2 -3 4 0
-1 2 3 4 0
5 6 7 8 0
5 6 -7 8 0
5 -6 7 8 0
5 -6 -7 8 0
-5 6 7 8 0
9 10 11 12 0
9 10 -11 12 0
9 -10 11 12 0
9 -10 -11 12 0
-9 10 11 12 0
13 14 15 1 2 3 5 6 7 17 0
13 14 15 1 2 3 5 6 -7 16 0
13 14 15 1 2 3 5 -6 7 20 0
13 14 15 1 2 3 5 -6 -7 18 0
13 14 15 1 2 3 -5 6 7 19 0
13 14 15 1 2 -3 5 6 7 21 0
13 14 15 1 2 -3 5 6 -7 22 0
13 14 15 1 2 -3 5 -6 7 49 0
13 14 15 1 2 -3 5 -6 -7 19 0
13 14 15 1 2 -3 -5 6 7 19 0
13 14 15 1 -2 3 5 6 7 23 0
13 14 15 1 -2 3 5 6 -7 24 0
13 14 15 1 -2 3 5 -6 7 19 0
13 14 15 1 -2 3 5 -6 -7 19 0
13 14 15 1 -2 3 -5 6 7 19 0
13 14 15 1 -2 -3 5 6 7 25 0
13 14 15 1 -2 -3 5 6 -7 19 0
13 14 15 1 -2 -3 5 -6 7 19 0
13 14 15 1 -2 -3 5 -6 -7 19 0
13 14 15 1 -2 -3 -5 6 7 19 0
13 14 15 -1 2 3 5 6 7 61 0
13 14 15 -1 2 3 5 6 -7 19 0
13 14 15 -1 2 3 5 -6 7 19 0
13 14 15 -1 2 3 5 -6 -7 19 0
13 14 15 -1 2 3 -5 6 7 19 0
13 14 -15 1 2 3 5 6 7 19 0
13 14 -15 1 2 3 5 6 -7 81 0
13 14 -15 1 2 3 5 -6 7 26 0
13 14 -15 1 2 3 5 -6 -7 50 0
13 14 -15 1 2 3 -5 6 7 64 0
13 14 -15 1 2 -3 5 6 7 54 0
13 14 -15 1 2 -3 5 6 -7 36 0
13 14 -15 1 2 -3 5 -6 7 37 0
13 14 -15 1 2 -3 5 -6 -7 73 0
13 14 -15 1 2 -3 -5 6 7 19 0
13 14 -15 1 -2 3 5 6 7 44 0
13 14 -15 1 -2 3 5 6 -7 71 0
13 14 -15 1 -2 3 5 -6 7 55 0
13 14 -15 1 -2 3 5 -6 -7 19 0
13 14 -15 1 -2 3 -5 6 7 19 0
13 14 -15 1 -2 -3 5 6 7 74 0
13 14 -15 1 -2 -3 5 6 -7 31 0
13 14 -15 1 -2 -3 5 -6 7 75 0
13 14 -15 1 -2 -3 5 -6 -7 19 0
13 14 -15 1 -2 -3 -5 6 7 19 0
13 14 -15 -1 2 3 5 6 7 65 0
13 14 -15 -1 2 3 5 6 -7 35 0
13 14 -15 -1 2 3 5 -6 7 19 0
13 14 -15 -1 2 3 5 -6 -7 19 0
13 14 -15 -1 2 3 -5 6 7 19 0
13 -14 15 1 2 3 5 6 7 19 0
13 -14 15 1 2 3 5 6 -7 19 0
13 -14 15 1 2 3 5 -6 7 45 0
13 -14 15 1 2 3 5 -6 -7 68 0
13 -14 15 1 2 3 -5 6 7 27 0
13 -14 15 1 2 -3 5 6 7 19 0
13 -14 15 1 2 -3 5 6 -7 56 0
13 -14 15 1 2 -3 5 -6 7 47 0
13 -14 15 1 2 -3 5 -6 -7 48 0
13 -14 15 1 2 -3 -5 6 7 57 0
13 -14 15 1 -2 3 5 6 7 19 0
13 -14 15 1 -2 3 5 6 -7 66 0
13 -14 15 1 -2 3 5 -6 7 32 0
13 -14 15 1 -2 3 5 -6 -7 67 0
13 -14 15 1 -2 3 -5 6 7 19 0
13 -14 15 1 -2 -3 5 6 7 28 0
13 -14 15 1 -2 -3 5 6 -7 30 0
13 -14 15 1 -2 -3 5 -6 7 78 0
13 -14 15 1 -2 -3 5 -6 -7 76 0
13 -14 15 1 -2 -3 -5 6 7 19 0
13 -14 15 -1 2 3 5 6 7 58 0
13 -14 15 -1 2 3 5 6 -7 80 0
13 -14 15 -1 2 3 5 -6 7 56 0
13 -14 15 -1 2 3 5 -6 -7 19 0
13 -14 15 -1 2 3 -5 6 7 19 0
13 -14 -15 1 2 3 5 6 7 19 0
13 -14 -15 1 2 3 5 6 -7 19 0
13 -14 -15 1 2 3 5 -6 7 19 0
13 -14 -15 1 2 3 5 -6 -7 38 0
13 -14 -15 1 2 3 -5 6 7 70 0
13 -14 -15 1 2 -3 5 6 7 19 0
13 -14 -15 1 2 -3 5 6 -7 19 0
13 -14 -15 1 2 -3 5 -6 7 49 0
13 -14 -15 1 2 -3 5 -6 -7 33 0
13 -14 -15 1 2 -3 -5 6 7 51 0
13 -14 -15 1 -2 3 5 6 7 19 0
13 -14 -15 1 -2 3 5 6 -7 19 0
13 -14 -15 1 -2 3 5 -6 7 41 0
13 -14 -15 1 -2 3 5 -6 -7 29 0
13 -14 -15 1 -2 3 -5 6 7 62 0
13 -14 -15 1 -2 -3 5 6 7 19 0
13 -14 -15 1 -2 -3 5 6 -7 59 0
13 -14 -15 1 -2 -3 5 -6 7 72 0
13 -14 -15 1 -2 -3 5 -6 -7 52 0
13 -14 -15 1 -2 -3 -5 6 7 63 0
13 -14 -15 -1 2 3 5 6 7 58 0
13 -14 -15 -1 2 3 5 6 -7 84 0
13 -14 -15 -1 2 3 5 -6 7 26 0
13 -14 -15 -1 2 3 5 -6 -7 77 0
13 -14 -15 -1 2 3 -5 6 7 60 0
-13 14 15 1 2 3 5 6 7 19 0
-13 14 15 1 2 3 5 6 -7 19 0
-13 14 15 1 2 3 5 -6 7 19 0
-13 14 15 1 2 3 5 -6 -7 19 0
-13 14 15 1 2 3 -5 6 7 69 0
-13 14 15 1 2 -3 5 6 7 19 0
-13 14 15 1 2 -3 5 6 -7 19 0
-13 14 15 1 2 -3 5 -6 7 19 0
-13 14 15 1 2 -3 5 -6 -7 19 0
-13 14 15 1 2 -3 -5 6 7 46 0
-13 14 15 1 -2 3 5 6 7 19 0
-13 14 15 1 -2 3 5 6 -7 19 0
-13 14 15 1 -2 3 5 -6 7 19 0
-13 14 15 1 -2 3 5 -6 -7 42 0
-13 14 15 1 -2 3 -5 6 7 53 0
-13 14 15 1 -2 -3 5 6 7 19 0
-13 14 15 1 -2 -3 5 6 -7 19 0
-13 14 15 1 -2 -3 5 -6 7 19 0
-13 14 15 1 -2 -3 5 -6 -7 40 0
-13 14 15 1 -2 -3 -5 6 7 34 0
-13 14 15 -1 2 3 5 6 7 39 0
-13 14 15 -1 2 3 5 6 -7 82 0
-13 14 15 -1 2 3 5 -6 7 79 0
-13 14 15 -1 2 3 5 -6 -7 43 0
-13 14 15 -1 2 3 -5 6 7 83 0
85 86 87 9 10 11 13 14 15 89 0
85 86 87 9 10 11 13 14 -15 88 0
85 86 87 9 10 11 13 -14 15 91 0
85 86 87 9 10 11 13 -14 -15 91 0
85 86 87 9 10 11 -13 14 15 91 0
85 86 87 9 10 -11 13 14 15 89 0
85 86 87 9 10 -11 13 14 -15 92 0
85 86 87 9 10 -11 13 -14 15 91 0
85 86 87 9 10 -11 13 -14 -15 91 0
85 86 87 9 10 -11 -13 14 15 91 0
85 86 87 9 -10 11 13 14 15 90 0
85 86 87 9 -10 11 13 14 -15 91 0
85 86 87 9 -10 11 13 -14 15 91 0
85 86 87 9 -10 11 13 -14 -15 91 0
85 86 87 9 -10 11 -13 14 15 91 0
85 86 87 9 -10 -11 13 14 15 93 0
85 86 87 9 -10 -11 13 14 -15 91 0
85 86 87 9 -10 -11 13 -14 15 91 0
85 86 87 9 -10 -11 13 -14 -15 91 0
85 86 87 9 -10 -11 -13 14 15 91 0
85 86 87 -9 10 11 13 14 15 94 0
85 86 87 -9 10 11 13 14 -15 91 0
85 86 87 -9 10 11 13 -14 15 91 0
85 86 87 -9 10 11 13 -14 -15 91 0
85 86 87 -9 10 11 -13 14 15 91 0
85 86 -87 9 10 11 13 14 15 91 0
85 86 -87 9 10 11 13 14 -15 95 0
85 86 -87 9 10 11 13 -14 15 96 0
85 86 -87 9 10 11 13 -14 -15 97 0
85 86 -87 9 10 11 -13 14 15 91 0
85 86 -87 9 10 -11 13 14 15 91 0
85 86 -87 9 10 -11 13 14 -15 109 0
85 86 -87 9 10 -11 13 -14 15 110 0
85 86 -87 9 10 -11 13 -14 -15 91 0
85 86 -87 9 10 -11 -13 14 15 91 0
85 86 -87 9 -10 11 13 14 15 130 0
85 86 -87 9 -10 11 13 14 -15 129 0
85 86 -87 9 -10 11 13 -14 15 114 0
85 86 -87 9 -10 11 13 -14 -15 91 0
85 86 -87 9 -10 11 -13 14 15 91 0
85 86 -87 9 -10 -11 13 14 15 98 0
85 86 -87 9 -10 -11 13 14 -15 100 0
85 86 -87 9 -10 -11 13 -14 15 112 0
85 86 -87 9 -10 -11 13 -14 -15 91 0
85 86 -87 9 -10 -11 -13 14 15 91 0
85 86 -87 -9 10 11 13 14 15 120 0
85 86 -87 -9 10 11 13 14 -15 111 0
85 86 -87 -9 10 11 13 -14 15 91 0
85 86 -87 -9 10 11 13 -14 -15 91 0
85 86 -87 -9 10 11 -13 14 15 91 0
85 -86 87 9 10 11 13 14 15 91 0
85 -86 87 9 10 11 13 14 -15 91 0
85 -86 87 9 10 11 13 -14 15 110 0
85 -86 87 9 10 11 13 -14 -15 101 0
85 -86 87 9 10 11 -13 14 15 91 0
85 -86 87 9 10 -11 13 14 15 91 0
85 -86 87 9 10 -11 13 14 -15 91 0
85 -86 87 9 10 -11 13 -14 15 96 0
85 -86 87 9 10 -11 13 -14 -15 115 0
85 -86 87 9 10 -11 -13 14 15 91 0
85 -86 87 9 -10 11 13 14 15 91 0
85 -86 87 9 -10 11 13 14 -15 105 0
85 -86 87 9 -10 11 13 -14 15 102 0
85 -86 87 9 -10 11 13 -14 -15 116 0
85 -86 87 9 -10 11 -13 14 15 91 0
85 -86 87 9 -10 -11 13 14 15 91 0
85 -86 87 9 -10 -11 13 14 -15 128 0
85 -86 87 9 -10 -11 13 -14 15 103 0
85 -86 87 9 -10 -11 13 -14 -15 91 0
85 -86 87 9 -10 -11 -13 14 15 91 0
85 -86 87 -9 10 11 13 14 15 91 0
85 -86 87 -9 10 11 13 14 -15 126 0
85 -86 87 -9 10 11 13 -14 15 106 0
85 -86 87 -9 10 11 13 -14 -15 91 0
85 -86 87 -9 10 11 -13 14 15 91 0
85 -86 -87 9 10 11 13 14 15 91 0
85 -86 -87 9 10 11 13 14 -15 91 0
85 -86 -87 9 10 11 13 -14 15 91 0
85 -86 -87 9 10 11 13 -14 -15 125 0
85 -86 -87 9 10 11 -13 14 15 107 0
85 -86 -87 9 10 -11 13 14 15 91 0
85 -86 -87 9 10 -11 13 14 -15 91 0
85 -86 -87 9 10 -11 13 -14 15 91 0
85 -86 -87 9 10 -11 13 -14 -15 117 0
85 -86 -87 9 10 -11 -13 14 15 108 0
85 -86 -87 9 -10 11 13 14 15 91 0
85 -86 -87 9 -10 11 13 14 -15 91 0
85 -86 -87 9 -10 11 13 -14 15 131 0
85 -86 -87 9 -10 11 13 -14 -15 121 0
85 -86 -87 9 -10 11 -13 14 15 91 0
85 -86 -87 9 -10 -11 13 14 15 91 0
85 -86 -87 9 -10 -11 13 14 -15 91 0
85 -86 -87 9 -10 -11 13 -14 15 113 0
85 -86 -87 9 -10 -11 13 -14 -15 123 0
85 -86 -87 9 -10 -11 -13 14 15 91 0
85 -86 -87 -9 10 11 13 14 15 91 0
85 -86 -87 -9 10 11 13 14 -15 118 0
85 -86 -87 -9 10 11 13 -14 15 122 0
85 -86 -87 -9 10 11 13 -14 -15 88 0
85 -86 -87 -9 10 11 -13 14 15 91 0
-85 86 87 9 10 11 13 14 15 91 0
-85 86 87 9 10 11 13 14 -15 91 0
-85 86 87 9 10 11 13 -14 15 91 0
-85 86 87 9 10 11 13 -14 -15 91 0
-85 86 87 9 10 11 -13 14 15 127 0
-85 86 87 9 10 -11 13 14 15 91 0
-85 86 87 9 10 -11 13 14 -15 91 0
-85 86 87 9 10 -11 13 -14 15 91 0
-85 86 87 9 10 -11 13 -14 -15 91 0
-85 86 87 9 10 -11 -13 14 15 124 0
-85 86 87 9 -10 11 13 14 15 91 0
-85 86 87 9 -10 11 13 14 -15 91 0
-85 86 87 9 -10 11 13 -14 15 91 0
-85 86 87 9 -10 11 13 -14 -15 99 0
-85 86 87 9 -10 11 -13 14 15 89 0
-85 86 87 9 -10 -11 13 14 15 91 0
-85 86 87 9 -10 -11 13 14 -15 91 0
-85 86 87 9 -10 -11 13 -14 15 91 0
-85 86 87 9 -10 -11 13 -14 -15 119 0
-85 86 87 9 -10 -11 -13 14 15 89 0
-85 86 87 -9 10 11 13 14 15 91 0
-85 86 87 -9 10 11 13 14 -15 91 0
-85 86 87 -9 10 11 13 -14 15 104 0
-85 86 87 -9 10 11 13 -14 -15 95 0
-85 86 87 -9 10 11 -13 14 15 89 0
